p min 10 15
n 1 1
n 7 -2
n 10 1
a 1 2 0 1 0
a 2 5 0 2 -100
a 3 4 0 2 0
a 3 6 0 2 -100
a 4 8 0 2 -100
a 5 6 0 2 -100
a 6 5 0 2 79840
a 6 7 0 2 -100
a 7 6 0 2 39880
a 7 8 0 2 -100
a 8 7 0 2 79600
a 8 9 0 2 -100
a 9 8 0 2 6385780
a 10 3 0 1 -998000
a 10 4 0 1 -1097800
